HUN,8,6,877
5,52,4,30,2,20,0,35,1,36,3,22
5,55,1,95,4,38,0,3,3,52,2,60
1,95,3,85,4,83,5,61,2,33,0,73
5,76,2,12,3,94,0,22,4,14,1,58
2,81,0,62,1,46,5,12,4,80,3,56
3,24,4,14,1,95,2,1,5,96,0,11
5,19,3,89,1,33,4,74,0,98,2,89
2,12,1,69,0,4,3,43,5,1,4,12
